3 5
142 155 120 
0 62 63 73 82 105 100 43 76 17 50 8 20 1
1 29 32 84 74 2 9 43 41 85 48 7 45 3
2 85 86 60 56 32 35 63 83 49 26 1 22 1
3 39 47 1 1 55 48 64 57 29 35 45 57 1
4 61 56 107 98 53 49 19 65 23 34 79 78 3
